lbl,CUST NO.,READY TIME,XCOORD.,YCOORD.,DEMAND,DUE DATE,SERVICE TIME
18,19,0,85,106,20,1222,90
18,28,0,90,104,20,1222,90
18,74,0,90,101,10,1225,90
18,149,0,91,95,20,1229,90
18,196,0,91,108,10,1218,90
18,120,93,86,102,10,159,90
18,192,275,87,108,20,350,90
18,97,465,92,107,30,532,90
18,96,656,94,105,10,728,90
18,130,754,94,104,10,813,90
